46
0
11
20
34
0
0
0
124
382
17
21
188
33
34
20
29
74
70
34
33
45
40
92
103
84
44
56
19
57
22
47
72
23
17
14
0
38
0
21
17
91
104
88
12
60
75
60
0
85
26
40
58
21
0
48
148
111
44
159
66
0
42
184
64
65
23
30
15
33
0
21
0
134
17
140
27
17
0
100
22
50
23
14
10
29
31
28
60
98
34
12
26
19
14
29
125
33
14
111
